//Dat File

outFile="MPVSBPP_SET1_IT200_ITV1_NT1_TS3_WT1_VT1_REP4";
m=200;
o=32;
p=3;
numVTypes=1;

demand = [3, 11, 4, 2, 1, 4, 1, 1, 8, 7, 8, 3, 11, 11, 7, 8, 11, 2, 8, 5, 3, 11, 3, 2, 3, 2, 2, 8, 9, 5, 2, 1, 9, 3, 8, 11, 5, 11, 7, 6, 11, 2, 6, 9, 3, 3, 6, 6, 4, 4, 8, 1, 11, 4, 4, 11, 4, 4, 6, 2, 2, 4, 11, 4, 1, 1, 5, 11, 2, 10, 4, 8, 3, 7, 9, 1, 10, 5, 5, 4, 9, 2, 11, 6, 2, 7, 10, 6, 6, 3, 3, 7, 7, 1, 3, 9, 11, 8, 11, 4, 9, 9, 8, 11, 4, 9, 2, 9, 11, 6, 4, 6, 7, 8, 4, 7, 3, 10, 9, 7, 3, 4, 5, 8, 4, 8, 9, 2, 9, 5, 1, 4, 4, 3, 1, 10, 8, 11, 9, 4, 6, 3, 9, 9, 10, 11, 9, 6, 8, 5, 16, 14, 17, 18, 14, 18, 14, 13, 18, 12, 16, 15, 12, 13, 17, 14, 16, 14, 14, 15, 15, 15, 16, 12, 15, 18, 18, 17, 13, 18, 16, 19, 19, 17, 17, 12, 15, 19, 16, 13, 15, 12, 18, 15, 15, 16, 19, 17, 19, 19];
Depot_Cap = [30000, 30000, 30000];
Tarif = [10, 3, 7];
VeicVolume = [100];
VeicCost = [100];
VeicType = [1, 1, 1, 1, 1, 1, 1, 1, 1, 1, 1, 1, 1, 1, 1, 1, 1, 1, 1, 1, 1, 1, 1, 1, 1, 1, 1, 1, 1, 1, 1, 1];
Elect_vehicle = [[70, 100, 30], [70, 100, 30], [70, 100, 30], [70, 100, 30], [70, 100, 30], [70, 100, 30], [70, 100, 30], [70, 100, 30], [70, 100, 30], [70, 100, 30], [70, 100, 30], [70, 100, 30], [70, 100, 30], [70, 100, 30], [70, 100, 30], [70, 100, 30], [70, 100, 30], [70, 100, 30], [70, 100, 30], [70, 100, 30], [70, 100, 30], [70, 100, 30], [70, 100, 30], [70, 100, 30], [70, 100, 30], [70, 100, 30], [70, 100, 30], [70, 100, 30], [70, 100, 30], [70, 100, 30], [70, 100, 30], [70, 100, 30]];